c n orig vars 66
p cnf 167 418
67 -1 0
67 -2 0
-67 1 2 0
68 -3 0
68 -4 0
-68 3 4 0
69 -5 0
69 -6 0
-69 5 6 0
70 -7 0
70 -8 0
-70 7 8 0
71 -9 0
71 -10 0
-71 9 10 0
72 -11 0
72 -12 0
-72 11 12 0
73 -13 0
73 -14 0
-73 13 14 0
74 -15 0
74 -16 0
-74 15 16 0
75 -17 0
75 -18 0
-75 17 18 0
76 -19 0
76 -20 0
-76 19 20 0
77 -21 0
77 -22 0
-77 21 22 0
78 -23 0
78 -24 0
-78 23 24 0
79 -25 0
79 -26 0
-79 25 26 0
80 -27 0
80 -28 0
-80 27 28 0
81 -29 0
81 -30 0
-81 29 30 0
82 -31 0
82 -32 0
-82 31 32 0
83 -33 0
83 -34 0
-83 33 34 0
84 -35 0
84 -36 0
-84 35 36 0
-85 67 0
-85 68 0
-85 69 0
-85 70 0
-85 71 0
-85 72 0
-85 73 0
-85 74 0
-85 75 0
-85 76 0
-85 77 0
-85 78 0
-85 79 0
-85 80 0
-85 81 0
-85 82 0
-85 83 0
-85 84 0
85 -67 -68 -69 -70 -71 -72 -73 -74 -75 -76 -77 -78 -79 -80 -81 -82 -83 -84 0
-85 0
86 -37 0
86 -43 0
86 -49 0
86 -55 0
86 -61 0
-86 37 43 49 55 61 0
87 -38 0
87 -44 0
87 -50 0
87 -56 0
87 -62 0
-87 38 44 50 56 62 0
88 -39 0
88 -45 0
88 -51 0
88 -57 0
88 -63 0
-88 39 45 51 57 63 0
89 -40 0
89 -46 0
89 -52 0
89 -58 0
89 -64 0
-89 40 46 52 58 64 0
90 -41 0
90 -47 0
90 -53 0
90 -59 0
90 -65 0
-90 41 47 53 59 65 0
91 -42 0
91 -48 0
91 -54 0
91 -60 0
91 -66 0
-91 42 48 54 60 66 0
92 37 0
92 38 0
-92 -37 -38 0
93 37 0
93 39 0
-93 -37 -39 0
94 37 0
94 40 0
-94 -37 -40 0
95 37 0
95 41 0
-95 -37 -41 0
96 37 0
96 42 0
-96 -37 -42 0
97 38 0
97 39 0
-97 -38 -39 0
98 38 0
98 40 0
-98 -38 -40 0
99 38 0
99 41 0
-99 -38 -41 0
100 38 0
100 42 0
-100 -38 -42 0
101 39 0
101 40 0
-101 -39 -40 0
102 39 0
102 41 0
-102 -39 -41 0
103 39 0
103 42 0
-103 -39 -42 0
104 40 0
104 41 0
-104 -40 -41 0
105 40 0
105 42 0
-105 -40 -42 0
106 41 0
106 42 0
-106 -41 -42 0
107 43 0
107 44 0
-107 -43 -44 0
108 43 0
108 45 0
-108 -43 -45 0
109 43 0
109 46 0
-109 -43 -46 0
110 43 0
110 47 0
-110 -43 -47 0
111 43 0
111 48 0
-111 -43 -48 0
112 44 0
112 45 0
-112 -44 -45 0
113 44 0
113 46 0
-113 -44 -46 0
114 44 0
114 47 0
-114 -44 -47 0
115 44 0
115 48 0
-115 -44 -48 0
116 45 0
116 46 0
-116 -45 -46 0
117 45 0
117 47 0
-117 -45 -47 0
118 45 0
118 48 0
-118 -45 -48 0
119 46 0
119 47 0
-119 -46 -47 0
120 46 0
120 48 0
-120 -46 -48 0
121 47 0
121 48 0
-121 -47 -48 0
122 49 0
122 50 0
-122 -49 -50 0
123 49 0
123 51 0
-123 -49 -51 0
124 49 0
124 52 0
-124 -49 -52 0
125 49 0
125 53 0
-125 -49 -53 0
126 49 0
126 54 0
-126 -49 -54 0
127 50 0
127 51 0
-127 -50 -51 0
128 50 0
128 52 0
-128 -50 -52 0
129 50 0
129 53 0
-129 -50 -53 0
130 50 0
130 54 0
-130 -50 -54 0
131 51 0
131 52 0
-131 -51 -52 0
132 51 0
132 53 0
-132 -51 -53 0
133 51 0
133 54 0
-133 -51 -54 0
134 52 0
134 53 0
-134 -52 -53 0
135 52 0
135 54 0
-135 -52 -54 0
136 53 0
136 54 0
-136 -53 -54 0
137 55 0
137 56 0
-137 -55 -56 0
138 55 0
138 57 0
-138 -55 -57 0
139 55 0
139 58 0
-139 -55 -58 0
140 55 0
140 59 0
-140 -55 -59 0
141 55 0
141 60 0
-141 -55 -60 0
142 56 0
142 57 0
-142 -56 -57 0
143 56 0
143 58 0
-143 -56 -58 0
144 56 0
144 59 0
-144 -56 -59 0
145 56 0
145 60 0
-145 -56 -60 0
146 57 0
146 58 0
-146 -57 -58 0
147 57 0
147 59 0
-147 -57 -59 0
148 57 0
148 60 0
-148 -57 -60 0
149 58 0
149 59 0
-149 -58 -59 0
150 58 0
150 60 0
-150 -58 -60 0
151 59 0
151 60 0
-151 -59 -60 0
152 61 0
152 62 0
-152 -61 -62 0
153 61 0
153 63 0
-153 -61 -63 0
154 61 0
154 64 0
-154 -61 -64 0
155 61 0
155 65 0
-155 -61 -65 0
156 61 0
156 66 0
-156 -61 -66 0
157 62 0
157 63 0
-157 -62 -63 0
158 62 0
158 64 0
-158 -62 -64 0
159 62 0
159 65 0
-159 -62 -65 0
160 62 0
160 66 0
-160 -62 -66 0
161 63 0
161 64 0
-161 -63 -64 0
162 63 0
162 65 0
-162 -63 -65 0
163 63 0
163 66 0
-163 -63 -66 0
164 64 0
164 65 0
-164 -64 -65 0
165 64 0
165 66 0
-165 -64 -66 0
166 65 0
166 66 0
-166 -65 -66 0
-167 86 0
-167 87 0
-167 88 0
-167 89 0
-167 90 0
-167 91 0
-167 92 0
-167 93 0
-167 94 0
-167 95 0
-167 96 0
-167 97 0
-167 98 0
-167 99 0
-167 100 0
-167 101 0
-167 102 0
-167 103 0
-167 104 0
-167 105 0
-167 106 0
-167 107 0
-167 108 0
-167 109 0
-167 110 0
-167 111 0
-167 112 0
-167 113 0
-167 114 0
-167 115 0
-167 116 0
-167 117 0
-167 118 0
-167 119 0
-167 120 0
-167 121 0
-167 122 0
-167 123 0
-167 124 0
-167 125 0
-167 126 0
-167 127 0
-167 128 0
-167 129 0
-167 130 0
-167 131 0
-167 132 0
-167 133 0
-167 134 0
-167 135 0
-167 136 0
-167 137 0
-167 138 0
-167 139 0
-167 140 0
-167 141 0
-167 142 0
-167 143 0
-167 144 0
-167 145 0
-167 146 0
-167 147 0
-167 148 0
-167 149 0
-167 150 0
-167 151 0
-167 152 0
-167 153 0
-167 154 0
-167 155 0
-167 156 0
-167 157 0
-167 158 0
-167 159 0
-167 160 0
-167 161 0
-167 162 0
-167 163 0
-167 164 0
-167 165 0
-167 166 0
167 -86 -87 -88 -89 -90 -91 -92 -93 -94 -95 -96 -97 -98 -99 -100 -101 -102 -103 -104 -105 -106 -107 -108 -109 -110 -111 -112 -113 -114 -115 -116 -117 -118 -119 -120 -121 -122 -123 -124 -125 -126 -127 -128 -129 -130 -131 -132 -133 -134 -135 -136 -137 -138 -139 -140 -141 -142 -143 -144 -145 -146 -147 -148 -149 -150 -151 -152 -153 -154 -155 -156 -157 -158 -159 -160 -161 -162 -163 -164 -165 -166 0
-167 0
